\ENCODING=ISO-8859-1
\Problem name: IloCplex

Minimize
 obj: 36 x1 + 46 x2 + 34 x3 + 25 x4 + 29 x5 + 17 x6 + 15 x7 + 29 x8 + 38 x9
      + 50 x10 + 39 x11 + 50 x12 + 37 x13 + 39 x14 + 25 x15 + 13 x16 + 11 x17
      + 11 x18 + 32 x19 + 50 x20 + 23 x21 + 44 x22 + 15 x23 + 25 x24 + 42 x25
      + 13 x26 + 41 x27 + 31 x28 + 16 x29 + 44 x30 + 49 x31 + 25 x32 + 31 x33
      + 14 x34 + 45 x35 + 44 x36 + 36 x37 + 50 x38 + 49 x39 + 30 x40 + 15 x41
      + 22 x42 + 31 x43 + 45 x44 + 40 x45 + 41 x46 + 22 x47 + 34 x48 + 13 x49
      + 26 x50 + 14 x51 + 34 x52 + 31 x53 + 22 x54 + 47 x55 + 37 x56 + 42 x57
      + 47 x58 + 42 x59 + 24 x60 + 32 x61 + 25 x62 + 41 x63 + 40 x64 + 35 x65
      + 20 x66 + 43 x67 + 10 x68 + 29 x69 + 28 x70 + 30 x71 + 23 x72 + 20 x73
      + 28 x74 + 26 x75 + 47 x76 + 46 x77 + 30 x78 + 18 x79 + 47 x80 + 17 x81
      + 17 x82 + 40 x83 + 45 x84 + 43 x85 + 44 x86 + 48 x87 + 24 x88 + 48 x89
      + 23 x90 + 38 x91 + 45 x92 + 27 x93 + 36 x94 + 20 x95 + 11 x96 + 26 x97
      + 35 x98 + 27 x99 + 41 x100 + 12 x101 + 33 x102 + 26 x103 + 10 x104
      + 32 x105 + 49 x106 + 46 x107 + 44 x108 + 41 x109 + 49 x110 + 41 x111
      + 45 x112 + 43 x113 + 44 x114 + 24 x115 + 14 x116 + 17 x117 + 21 x118
      + 32 x119 + 39 x120 + 25 x121 + 29 x122 + 28 x123 + 38 x124 + 38 x125
      + 12 x126 + 17 x127 + 42 x128 + 22 x129 + 43 x130 + 31 x131 + 47 x132
      + 15 x133 + 10 x134 + 40 x135 + 12 x136 + 39 x137 + 34 x138 + 28 x139
      + 23 x140 + 35 x141 + 46 x142 + 48 x143 + 40 x144 + 29 x145 + 13 x146
      + 38 x147 + 37 x148 + 14 x149 + 16 x150 + 30 x151 + 32 x152 + 20 x153
      + 37 x154 + 48 x155 + 32 x156 + 48 x157 + 38 x158 + 41 x159 + 11 x160
      + 49 x161 + 35 x162 + 43 x163 + 19 x164 + 10 x165 + 19 x166 + 45 x167
      + 32 x168 + 28 x169 + 23 x170 + 23 x171 + 11 x172 + 23 x173 + 40 x174
      + 14 x175 + 21 x176 + 44 x177 + 41 x178 + 25 x179 + 41 x180 + 40 x181
      + 41 x182 + 42 x183 + 13 x184 + 45 x185 + 31 x186 + 43 x187 + 13 x188
      + 20 x189 + 25 x190 + 30 x191 + 19 x192 + 10 x193 + 10 x194 + 43 x195
      + 31 x196 + 35 x197 + 21 x198 + 31 x199 + 45 x200 + 34 x201 + 23 x202
      + 36 x203 + 34 x204 + 21 x205 + 39 x206 + 48 x207 + 37 x208 + 34 x209
      + 10 x210 + 44 x211 + 39 x212 + 41 x213 + 13 x214 + 45 x215 + 11 x216
      + 35 x217 + 43 x218 + 35 x219 + 46 x220 + 27 x221 + 36 x222 + 19 x223
      + 23 x224 + 21 x225 + 20 x226 + 46 x227 + 29 x228 + 29 x229 + 12 x230
      + 40 x231 + 11 x232 + 14 x233 + 50 x234 + 25 x235 + 34 x236 + 32 x237
      + 37 x238 + 28 x239 + 36 x240 + 35 x241 + 15 x242 + 25 x243 + 37 x244
      + 30 x245 + 41 x246 + 28 x247 + 32 x248 + 48 x249 + 32 x250 + 40 x251
      + 32 x252 + 40 x253 + 41 x254 + 17 x255 + 41 x256 + 34 x257 + 40 x258
      + 19 x259 + 42 x260 + 36 x261 + 15 x262 + 50 x263 + 26 x264 + 49 x265
      + 47 x266 + 20 x267 + 35 x268 + 39 x269 + 20 x270 + 10 x271 + 23 x272
      + 42 x273 + 39 x274 + 14 x275 + 44 x276 + 44 x277 + 22 x278 + 34 x279
      + 23 x280 + 26 x281 + 50 x282 + 26 x283 + 35 x284 + 15 x285 + 39 x286
      + 46 x287 + 26 x288 + 48 x289 + 17 x290 + 47 x291 + 16 x292 + 44 x293
      + 39 x294 + 50 x295 + 46 x296 + 21 x297 + 50 x298 + 50 x299 + 17 x300
      + 10 x301 + 42 x302 + 25 x303 + 24 x304 + 16 x305 + 31 x306 + 11 x307
      + 25 x308 + 21 x309 + 43 x310 + 41 x311 + 27 x312 + 38 x313 + 31 x314
      + 36 x315 + 35 x316 + 14 x317 + 17 x318 + 18 x319 + 36 x320 + 25 x321
      + 27 x322 + 44 x323 + 18 x324 + 24 x325 + 46 x326 + 43 x327 + 44 x328
      + 21 x329 + 20 x330 + 11 x331 + 42 x332 + 20 x333 + 24 x334 + 33 x335
      + 42 x336 + 41 x337 + 32 x338 + 50 x339 + 25 x340 + 47 x341 + 15 x342
      + 38 x343 + 29 x344 + 32 x345 + 46 x346 + 25 x347 + 10 x348 + 42 x349
      + 33 x350 + 27 x351 + 20 x352 + 11 x353 + 33 x354 + 41 x355 + 31 x356
      + 11 x357 + 23 x358 + 49 x359 + 12 x360 + 20 x361 + 50 x362 + 39 x363
      + 47 x364 + 45 x365 + 38 x366 + 50 x367 + 19 x368 + 45 x369 + 49 x370
      + 33 x371 + 49 x372 + 25 x373 + 44 x374 + 32 x375 + 30 x376 + 42 x377
      + 47 x378 + 25 x379 + 21 x380 + 45 x381 + 11 x382 + 13 x383 + 33 x384
      + 17 x385 + 48 x386 + 19 x387 + 37 x388 + 27 x389 + 29 x390 + 17 x391
      + 44 x392 + 34 x393 + 37 x394 + 19 x395 + 50 x396 + 43 x397 + 22 x398
      + 27 x399 + 38 x400 + 39 x401 + 19 x402 + 24 x403 + 16 x404 + 50 x405
      + 20 x406 + 39 x407 + 11 x408 + 26 x409 + 40 x410 + 18 x411 + 44 x412
      + 37 x413 + 26 x414 + 13 x415 + 25 x416 + 16 x417 + 12 x418 + 39 x419
      + 19 x420 + 31 x421 + 29 x422 + 34 x423 + 48 x424 + 42 x425 + 11 x426
      + 32 x427 + 27 x428 + 39 x429 + 26 x430 + 47 x431 + 37 x432 + 39 x433
      + 49 x434 + 37 x435 + 50 x436 + 33 x437 + 26 x438 + 12 x439 + 12 x440
      + 26 x441 + 38 x442 + 22 x443 + 13 x444 + 11 x445 + 20 x446 + 40 x447
      + 44 x448 + 25 x449 + 38 x450 + 29 x451 + 37 x452 + 11 x453 + 19 x454
      + 39 x455 + 33 x456 + 27 x457 + 50 x458 + 33 x459 + 35 x460 + 40 x461
      + 47 x462 + 47 x463 + 15 x464 + 23 x465 + 11 x466 + 38 x467 + 29 x468
      + 36 x469 + 50 x470 + 39 x471 + 12 x472 + 47 x473 + 21 x474 + 50 x475
      + 24 x476 + 29 x477 + 47 x478 + 35 x479 + 39 x480 + 25 x481 + 42 x482
      + 35 x483 + 30 x484 + 19 x485 + 23 x486 + 22 x487 + 28 x488 + 16 x489
      + 39 x490 + 10 x491 + 46 x492 + 37 x493 + 29 x494 + 18 x495 + 30 x496
      + 16 x497 + 32 x498 + 30 x499 + 33 x500 + x501
Subject To
 c1:   x1 + x101 + x201 + x301 + x401  = 1
 c2:   x2 + x102 + x202 + x302 + x402  = 1
 c3:   x3 + x103 + x203 + x303 + x403  = 1
 c4:   x4 + x104 + x204 + x304 + x404  = 1
 c5:   x5 + x105 + x205 + x305 + x405  = 1
 c6:   x6 + x106 + x206 + x306 + x406  = 1
 c7:   x7 + x107 + x207 + x307 + x407  = 1
 c8:   x8 + x108 + x208 + x308 + x408  = 1
 c9:   x9 + x109 + x209 + x309 + x409  = 1
 c10:  x10 + x110 + x210 + x310 + x410  = 1
 c11:  x11 + x111 + x211 + x311 + x411  = 1
 c12:  x12 + x112 + x212 + x312 + x412  = 1
 c13:  x13 + x113 + x213 + x313 + x413  = 1
 c14:  x14 + x114 + x214 + x314 + x414  = 1
 c15:  x15 + x115 + x215 + x315 + x415  = 1
 c16:  x16 + x116 + x216 + x316 + x416  = 1
 c17:  x17 + x117 + x217 + x317 + x417  = 1
 c18:  x18 + x118 + x218 + x318 + x418  = 1
 c19:  x19 + x119 + x219 + x319 + x419  = 1
 c20:  x20 + x120 + x220 + x320 + x420  = 1
 c21:  x21 + x121 + x221 + x321 + x421  = 1
 c22:  x22 + x122 + x222 + x322 + x422  = 1
 c23:  x23 + x123 + x223 + x323 + x423  = 1
 c24:  x24 + x124 + x224 + x324 + x424  = 1
 c25:  x25 + x125 + x225 + x325 + x425  = 1
 c26:  x26 + x126 + x226 + x326 + x426  = 1
 c27:  x27 + x127 + x227 + x327 + x427  = 1
 c28:  x28 + x128 + x228 + x328 + x428  = 1
 c29:  x29 + x129 + x229 + x329 + x429  = 1
 c30:  x30 + x130 + x230 + x330 + x430  = 1
 c31:  x31 + x131 + x231 + x331 + x431  = 1
 c32:  x32 + x132 + x232 + x332 + x432  = 1
 c33:  x33 + x133 + x233 + x333 + x433  = 1
 c34:  x34 + x134 + x234 + x334 + x434  = 1
 c35:  x35 + x135 + x235 + x335 + x435  = 1
 c36:  x36 + x136 + x236 + x336 + x436  = 1
 c37:  x37 + x137 + x237 + x337 + x437  = 1
 c38:  x38 + x138 + x238 + x338 + x438  = 1
 c39:  x39 + x139 + x239 + x339 + x439  = 1
 c40:  x40 + x140 + x240 + x340 + x440  = 1
 c41:  x41 + x141 + x241 + x341 + x441  = 1
 c42:  x42 + x142 + x242 + x342 + x442  = 1
 c43:  x43 + x143 + x243 + x343 + x443  = 1
 c44:  x44 + x144 + x244 + x344 + x444  = 1
 c45:  x45 + x145 + x245 + x345 + x445  = 1
 c46:  x46 + x146 + x246 + x346 + x446  = 1
 c47:  x47 + x147 + x247 + x347 + x447  = 1
 c48:  x48 + x148 + x248 + x348 + x448  = 1
 c49:  x49 + x149 + x249 + x349 + x449  = 1
 c50:  x50 + x150 + x250 + x350 + x450  = 1
 c51:  x51 + x151 + x251 + x351 + x451  = 1
 c52:  x52 + x152 + x252 + x352 + x452  = 1
 c53:  x53 + x153 + x253 + x353 + x453  = 1
 c54:  x54 + x154 + x254 + x354 + x454  = 1
 c55:  x55 + x155 + x255 + x355 + x455  = 1
 c56:  x56 + x156 + x256 + x356 + x456  = 1
 c57:  x57 + x157 + x257 + x357 + x457  = 1
 c58:  x58 + x158 + x258 + x358 + x458  = 1
 c59:  x59 + x159 + x259 + x359 + x459  = 1
 c60:  x60 + x160 + x260 + x360 + x460  = 1
 c61:  x61 + x161 + x261 + x361 + x461  = 1
 c62:  x62 + x162 + x262 + x362 + x462  = 1
 c63:  x63 + x163 + x263 + x363 + x463  = 1
 c64:  x64 + x164 + x264 + x364 + x464  = 1
 c65:  x65 + x165 + x265 + x365 + x465  = 1
 c66:  x66 + x166 + x266 + x366 + x466  = 1
 c67:  x67 + x167 + x267 + x367 + x467  = 1
 c68:  x68 + x168 + x268 + x368 + x468  = 1
 c69:  x69 + x169 + x269 + x369 + x469  = 1
 c70:  x70 + x170 + x270 + x370 + x470  = 1
 c71:  x71 + x171 + x271 + x371 + x471  = 1
 c72:  x72 + x172 + x272 + x372 + x472  = 1
 c73:  x73 + x173 + x273 + x373 + x473  = 1
 c74:  x74 + x174 + x274 + x374 + x474  = 1
 c75:  x75 + x175 + x275 + x375 + x475  = 1
 c76:  x76 + x176 + x276 + x376 + x476  = 1
 c77:  x77 + x177 + x277 + x377 + x477  = 1
 c78:  x78 + x178 + x278 + x378 + x478  = 1
 c79:  x79 + x179 + x279 + x379 + x479  = 1
 c80:  x80 + x180 + x280 + x380 + x480  = 1
 c81:  x81 + x181 + x281 + x381 + x481  = 1
 c82:  x82 + x182 + x282 + x382 + x482  = 1
 c83:  x83 + x183 + x283 + x383 + x483  = 1
 c84:  x84 + x184 + x284 + x384 + x484  = 1
 c85:  x85 + x185 + x285 + x385 + x485  = 1
 c86:  x86 + x186 + x286 + x386 + x486  = 1
 c87:  x87 + x187 + x287 + x387 + x487  = 1
 c88:  x88 + x188 + x288 + x388 + x488  = 1
 c89:  x89 + x189 + x289 + x389 + x489  = 1
 c90:  x90 + x190 + x290 + x390 + x490  = 1
 c91:  x91 + x191 + x291 + x391 + x491  = 1
 c92:  x92 + x192 + x292 + x392 + x492  = 1
 c93:  x93 + x193 + x293 + x393 + x493  = 1
 c94:  x94 + x194 + x294 + x394 + x494  = 1
 c95:  x95 + x195 + x295 + x395 + x495  = 1
 c96:  x96 + x196 + x296 + x396 + x496  = 1
 c97:  x97 + x197 + x297 + x397 + x497  = 1
 c98:  x98 + x198 + x298 + x398 + x498  = 1
 c99:  x99 + x199 + x299 + x399 + x499  = 1
 c100: x100 + x200 + x300 + x400 + x500  = 1
 c101: x402 + x403 + x408 + x411 + x413 + x415 + x420 + x438 + x439 + x440
       + x443 + x444 + x445 + x454 + x462 + x463 + 2 x464 + x465 + 2 x466
       + 2 x467 + 2 x468 + 2 x469 + 2 x470 + 2 x471 + 2 x472 + 2 x473 + 3 x474
       + 2 x475 + 2 x476 + 2 x477 + 2 x478 + 2 x479 + 2 x480 + 2 x481 + 2 x482
       + 2 x483 + x484 + x485 + x486 + x487 + x489 + x491 + x495 + x497 <= 20
 c102: 15 x1 + 8 x2 + 11 x3 + 16 x4 + 24 x5 + 8 x6 + 19 x7 + 9 x8 + 15 x9
       + 7 x10 + 6 x11 + 13 x12 + 10 x13 + 12 x14 + 25 x15 + 16 x16 + 21 x17
       + 18 x18 + 21 x19 + 21 x20 + 22 x21 + 8 x22 + 18 x23 + 11 x24 + 12 x25
       + 24 x26 + 15 x27 + 13 x28 + 17 x29 + 21 x30 + 24 x31 + 23 x32 + 23 x33
       + 19 x34 + 20 x35 + 17 x36 + 13 x37 + 12 x38 + 9 x39 + 22 x40 + 13 x41
       + 14 x42 + 25 x43 + 7 x44 + 9 x45 + 25 x46 + 20 x47 + 13 x48 + 21 x49
       + 20 x50 + 25 x51 + 5 x52 + 11 x53 + 20 x54 + 10 x55 + 17 x56 + 5 x57
       + 25 x58 + 11 x59 + 6 x60 + 14 x61 + 24 x62 + 17 x63 + 7 x64 + 16 x65
       + 10 x66 + 15 x67 + 9 x68 + 15 x69 + 13 x70 + 23 x71 + 13 x72 + 12 x73
       + 13 x74 + 5 x75 + 8 x76 + 15 x77 + 19 x78 + 7 x79 + 13 x80 + 21 x81
       + 10 x82 + 12 x83 + 9 x84 + 11 x85 + 11 x86 + 23 x87 + 5 x88 + 18 x89
       + 13 x90 + 19 x91 + 20 x92 + 24 x93 + 9 x94 + 22 x95 + 25 x96 + 21 x97
       + 14 x98 + 19 x99 + 21 x100 <= 342
 c103: 8 x101 + 10 x102 + 7 x103 + 23 x104 + 20 x105 + 9 x106 + 7 x107
       + 11 x108 + 21 x109 + 9 x110 + 16 x111 + 20 x112 + 9 x113 + 25 x114
       + 10 x115 + 14 x116 + 20 x117 + 23 x118 + 23 x119 + 25 x120 + 13 x121
       + 14 x122 + 7 x123 + 14 x124 + 9 x125 + 25 x126 + 18 x127 + 17 x128
       + 10 x129 + 14 x130 + 21 x131 + 6 x132 + 15 x133 + 8 x134 + 10 x135
       + 24 x136 + 17 x137 + 25 x138 + 15 x139 + 21 x140 + 20 x141 + 12 x142
       + 15 x143 + 16 x144 + 7 x145 + 17 x146 + 12 x147 + 8 x148 + 21 x149
       + 19 x150 + 14 x151 + 19 x152 + 7 x153 + 25 x154 + 16 x155 + 20 x156
       + 17 x157 + 18 x158 + 21 x159 + 8 x160 + 11 x161 + 10 x162 + 19 x163
       + 11 x164 + 16 x165 + 13 x166 + 11 x167 + 14 x168 + 16 x169 + 15 x170
       + 17 x171 + 13 x172 + 7 x173 + 10 x174 + 5 x175 + 25 x176 + 7 x177
       + 12 x178 + 18 x179 + 12 x180 + 16 x181 + 12 x182 + 16 x183 + 14 x184
       + 8 x185 + 17 x186 + 8 x187 + 16 x188 + 11 x189 + 23 x190 + 22 x191
       + 22 x192 + 23 x193 + 17 x194 + 16 x195 + 8 x196 + 18 x197 + 19 x198
       + 10 x199 + 7 x200 <= 342
 c104: 22 x201 + 9 x202 + 13 x203 + 12 x204 + 22 x205 + 7 x206 + 10 x207
       + 8 x208 + 15 x209 + 12 x210 + 15 x211 + 15 x212 + 12 x213 + 16 x214
       + 7 x215 + 15 x216 + 17 x217 + 20 x218 + 16 x219 + 12 x220 + 21 x221
       + 17 x222 + 10 x223 + 19 x224 + 16 x225 + 21 x226 + 23 x227 + 23 x228
       + 6 x229 + 21 x230 + 24 x231 + 18 x232 + 8 x233 + 11 x234 + 8 x235
       + 10 x236 + 22 x237 + 16 x238 + 5 x239 + 9 x240 + 5 x241 + 12 x242
       + 18 x243 + 15 x244 + 16 x245 + 8 x246 + 22 x247 + 5 x248 + 5 x249
       + 12 x250 + 17 x251 + 5 x252 + 18 x253 + 24 x254 + 12 x255 + 20 x256
       + 13 x257 + 25 x258 + 17 x259 + 7 x260 + 9 x261 + 21 x262 + 23 x263
       + 20 x264 + 5 x265 + 20 x266 + 13 x267 + 12 x268 + 9 x269 + 8 x270
       + 6 x271 + 7 x272 + 8 x273 + 21 x274 + 5 x275 + 21 x276 + 17 x277
       + 13 x278 + 9 x279 + 8 x280 + 17 x281 + 11 x282 + 17 x283 + 25 x284
       + 12 x285 + 8 x286 + 11 x287 + 6 x288 + 8 x289 + 5 x290 + 23 x291
       + 25 x292 + 18 x293 + 25 x294 + 18 x295 + 5 x296 + 12 x297 + 8 x298
       + 7 x299 + 9 x300 <= 342
 c105: 6 x301 + 5 x302 + 24 x303 + 24 x304 + 24 x305 + 23 x306 + 8 x307
       + 8 x308 + 6 x309 + 18 x310 + 20 x311 + 7 x312 + 8 x313 + 6 x314
       + 7 x315 + 5 x316 + 21 x317 + 25 x318 + 5 x319 + 18 x320 + 7 x321
       + 13 x322 + 11 x323 + 5 x324 + 23 x325 + 20 x326 + 15 x327 + 8 x328
       + 21 x329 + 23 x330 + 15 x331 + 23 x332 + 20 x333 + 9 x334 + 6 x335
       + 17 x336 + 23 x337 + 15 x338 + 19 x339 + 25 x340 + 17 x341 + 15 x342
       + 17 x343 + 23 x344 + 5 x345 + 23 x346 + 7 x347 + 15 x348 + 17 x349
       + 5 x350 + 13 x351 + 15 x352 + 9 x353 + 15 x354 + 21 x355 + 12 x356
       + 19 x357 + 24 x358 + 19 x359 + 19 x360 + 13 x361 + 5 x362 + 9 x363
       + 24 x364 + 15 x365 + 9 x366 + 18 x367 + 7 x368 + 10 x369 + 12 x370
       + 19 x371 + 5 x372 + 25 x373 + 20 x374 + 23 x375 + 18 x376 + 10 x377
       + 18 x378 + 22 x379 + 9 x380 + 20 x381 + 12 x382 + 6 x383 + 15 x384
       + 23 x385 + 10 x386 + 16 x387 + 15 x388 + 22 x389 + 12 x390 + 7 x391
       + 9 x392 + 7 x393 + 12 x394 + 9 x395 + 14 x396 + 22 x397 + 15 x398
       + 22 x399 + 13 x400 <= 342
 c106: 23 x401 + 19 x402 + 18 x403 + 17 x404 + 25 x405 + 14 x406 + 15 x407
       + 12 x408 + 11 x409 + 5 x410 + 25 x411 + 14 x412 + 8 x413 + 8 x414
       + 16 x415 + 17 x416 + 11 x417 + 12 x418 + 8 x419 + 14 x420 + 10 x421
       + 9 x422 + 20 x423 + 9 x424 + 9 x425 + 13 x426 + 21 x427 + 22 x428
       + 10 x429 + 5 x430 + 15 x431 + 12 x432 + 6 x433 + 19 x434 + 10 x435
       + 12 x436 + 16 x437 + 23 x438 + 11 x439 + 6 x440 + 14 x441 + 12 x442
       + 14 x443 + 22 x444 + 5 x445 + 23 x446 + 9 x447 + 18 x448 + 7 x449
       + 9 x450 + 17 x451 + 18 x452 + 22 x453 + 22 x454 + 8 x455 + 9 x456
       + 18 x457 + 14 x458 + 16 x459 + 6 x460 + 12 x461 + 20 x462 + 15 x463
       + 21 x464 + 23 x465 + 7 x466 + 18 x467 + 16 x468 + 20 x469 + 14 x470
       + 22 x471 + 21 x472 + 13 x473 + 22 x474 + 18 x475 + 18 x476 + 14 x477
       + 9 x478 + 10 x479 + 15 x480 + 18 x481 + 6 x482 + 7 x483 + 6 x484
       + 20 x485 + 22 x486 + 25 x487 + 18 x488 + 25 x489 + 12 x490 + 17 x491
       + 18 x492 + 25 x493 + 24 x494 + 14 x495 + 17 x496 + 22 x497 + 13 x498
       + 11 x499 + 22 x500 <= 342
Bounds
 0 <= x1 <= 1
 0 <= x2 <= 1
 0 <= x3 <= 1
 0 <= x4 <= 1
 0 <= x5 <= 1
 0 <= x6 <= 1
 0 <= x7 <= 1
 0 <= x8 <= 1
 0 <= x9 <= 1
 0 <= x10 <= 1
 0 <= x11 <= 1
 0 <= x12 <= 1
 0 <= x13 <= 1
 0 <= x14 <= 1
 0 <= x15 <= 1
 0 <= x16 <= 1
 0 <= x17 <= 1
 0 <= x18 <= 1
 0 <= x19 <= 1
 0 <= x20 <= 1
 0 <= x21 <= 1
 0 <= x22 <= 1
 0 <= x23 <= 1
 0 <= x24 <= 1
 0 <= x25 <= 1
 0 <= x26 <= 1
 0 <= x27 <= 1
 0 <= x28 <= 1
 0 <= x29 <= 1
 0 <= x30 <= 1
 0 <= x31 <= 1
 0 <= x32 <= 1
 0 <= x33 <= 1
 0 <= x34 <= 1
 0 <= x35 <= 1
 0 <= x36 <= 1
 0 <= x37 <= 1
 0 <= x38 <= 1
 0 <= x39 <= 1
 0 <= x40 <= 1
 0 <= x41 <= 1
 0 <= x42 <= 1
 0 <= x43 <= 1
 0 <= x44 <= 1
 0 <= x45 <= 1
 0 <= x46 <= 1
 0 <= x47 <= 1
 0 <= x48 <= 1
 0 <= x49 <= 1
 0 <= x50 <= 1
 0 <= x51 <= 1
 0 <= x52 <= 1
 0 <= x53 <= 1
 0 <= x54 <= 1
 0 <= x55 <= 1
 0 <= x56 <= 1
 0 <= x57 <= 1
 0 <= x58 <= 1
 0 <= x59 <= 1
 0 <= x60 <= 1
 0 <= x61 <= 1
 0 <= x62 <= 1
 0 <= x63 <= 1
 0 <= x64 <= 1
 0 <= x65 <= 1
 0 <= x66 <= 1
 0 <= x67 <= 1
 0 <= x68 <= 1
 0 <= x69 <= 1
 0 <= x70 <= 1
 0 <= x71 <= 1
 0 <= x72 <= 1
 0 <= x73 <= 1
 0 <= x74 <= 1
 0 <= x75 <= 1
 0 <= x76 <= 1
 0 <= x77 <= 1
 0 <= x78 <= 1
 0 <= x79 <= 1
 0 <= x80 <= 1
 0 <= x81 <= 1
 0 <= x82 <= 1
 0 <= x83 <= 1
 0 <= x84 <= 1
 0 <= x85 <= 1
 0 <= x86 <= 1
 0 <= x87 <= 1
 0 <= x88 <= 1
 0 <= x89 <= 1
 0 <= x90 <= 1
 0 <= x91 <= 1
 0 <= x92 <= 1
 0 <= x93 <= 1
 0 <= x94 <= 1
 0 <= x95 <= 1
 0 <= x96 <= 1
 0 <= x97 <= 1
 0 <= x98 <= 1
 0 <= x99 <= 1
 0 <= x100 <= 1
 0 <= x101 <= 1
 0 <= x102 <= 1
 0 <= x103 <= 1
 0 <= x104 <= 1
 0 <= x105 <= 1
 0 <= x106 <= 1
 0 <= x107 <= 1
 0 <= x108 <= 1
 0 <= x109 <= 1
 0 <= x110 <= 1
 0 <= x111 <= 1
 0 <= x112 <= 1
 0 <= x113 <= 1
 0 <= x114 <= 1
 0 <= x115 <= 1
 0 <= x116 <= 1
 0 <= x117 <= 1
 0 <= x118 <= 1
 0 <= x119 <= 1
 0 <= x120 <= 1
 0 <= x121 <= 1
 0 <= x122 <= 1
 0 <= x123 <= 1
 0 <= x124 <= 1
 0 <= x125 <= 1
 0 <= x126 <= 1
 0 <= x127 <= 1
 0 <= x128 <= 1
 0 <= x129 <= 1
 0 <= x130 <= 1
 0 <= x131 <= 1
 0 <= x132 <= 1
 0 <= x133 <= 1
 0 <= x134 <= 1
 0 <= x135 <= 1
 0 <= x136 <= 1
 0 <= x137 <= 1
 0 <= x138 <= 1
 0 <= x139 <= 1
 0 <= x140 <= 1
 0 <= x141 <= 1
 0 <= x142 <= 1
 0 <= x143 <= 1
 0 <= x144 <= 1
 0 <= x145 <= 1
 0 <= x146 <= 1
 0 <= x147 <= 1
 0 <= x148 <= 1
 0 <= x149 <= 1
 0 <= x150 <= 1
 0 <= x151 <= 1
 0 <= x152 <= 1
 0 <= x153 <= 1
 0 <= x154 <= 1
 0 <= x155 <= 1
 0 <= x156 <= 1
 0 <= x157 <= 1
 0 <= x158 <= 1
 0 <= x159 <= 1
 0 <= x160 <= 1
 0 <= x161 <= 1
 0 <= x162 <= 1
 0 <= x163 <= 1
 0 <= x164 <= 1
 0 <= x165 <= 1
 0 <= x166 <= 1
 0 <= x167 <= 1
 0 <= x168 <= 1
 0 <= x169 <= 1
 0 <= x170 <= 1
 0 <= x171 <= 1
 0 <= x172 <= 1
 0 <= x173 <= 1
 0 <= x174 <= 1
 0 <= x175 <= 1
 0 <= x176 <= 1
 0 <= x177 <= 1
 0 <= x178 <= 1
 0 <= x179 <= 1
 0 <= x180 <= 1
 0 <= x181 <= 1
 0 <= x182 <= 1
 0 <= x183 <= 1
 0 <= x184 <= 1
 0 <= x185 <= 1
 0 <= x186 <= 1
 0 <= x187 <= 1
 0 <= x188 <= 1
 0 <= x189 <= 1
 0 <= x190 <= 1
 0 <= x191 <= 1
 0 <= x192 <= 1
 0 <= x193 <= 1
 0 <= x194 <= 1
 0 <= x195 <= 1
 0 <= x196 <= 1
 0 <= x197 <= 1
 0 <= x198 <= 1
 0 <= x199 <= 1
 0 <= x200 <= 1
 0 <= x201 <= 1
 0 <= x202 <= 1
 0 <= x203 <= 1
 0 <= x204 <= 1
 0 <= x205 <= 1
 0 <= x206 <= 1
 0 <= x207 <= 1
 0 <= x208 <= 1
 0 <= x209 <= 1
 0 <= x210 <= 1
 0 <= x211 <= 1
 0 <= x212 <= 1
 0 <= x213 <= 1
 0 <= x214 <= 1
 0 <= x215 <= 1
 0 <= x216 <= 1
 0 <= x217 <= 1
 0 <= x218 <= 1
 0 <= x219 <= 1
 0 <= x220 <= 1
 0 <= x221 <= 1
 0 <= x222 <= 1
 0 <= x223 <= 1
 0 <= x224 <= 1
 0 <= x225 <= 1
 0 <= x226 <= 1
 0 <= x227 <= 1
 0 <= x228 <= 1
 0 <= x229 <= 1
 0 <= x230 <= 1
 0 <= x231 <= 1
 0 <= x232 <= 1
 0 <= x233 <= 1
 0 <= x234 <= 1
 0 <= x235 <= 1
 0 <= x236 <= 1
 0 <= x237 <= 1
 0 <= x238 <= 1
 0 <= x239 <= 1
 0 <= x240 <= 1
 0 <= x241 <= 1
 0 <= x242 <= 1
 0 <= x243 <= 1
 0 <= x244 <= 1
 0 <= x245 <= 1
 0 <= x246 <= 1
 0 <= x247 <= 1
 0 <= x248 <= 1
 0 <= x249 <= 1
 0 <= x250 <= 1
 0 <= x251 <= 1
 0 <= x252 <= 1
 0 <= x253 <= 1
 0 <= x254 <= 1
 0 <= x255 <= 1
 0 <= x256 <= 1
 0 <= x257 <= 1
 0 <= x258 <= 1
 0 <= x259 <= 1
 0 <= x260 <= 1
 0 <= x261 <= 1
 0 <= x262 <= 1
 0 <= x263 <= 1
 0 <= x264 <= 1
 0 <= x265 <= 1
 0 <= x266 <= 1
 0 <= x267 <= 1
 0 <= x268 <= 1
 0 <= x269 <= 1
 0 <= x270 <= 1
 0 <= x271 <= 1
 0 <= x272 <= 1
 0 <= x273 <= 1
 0 <= x274 <= 1
 0 <= x275 <= 1
 0 <= x276 <= 1
 0 <= x277 <= 1
 0 <= x278 <= 1
 0 <= x279 <= 1
 0 <= x280 <= 1
 0 <= x281 <= 1
 0 <= x282 <= 1
 0 <= x283 <= 1
 0 <= x284 <= 1
 0 <= x285 <= 1
 0 <= x286 <= 1
 0 <= x287 <= 1
 0 <= x288 <= 1
 0 <= x289 <= 1
 0 <= x290 <= 1
 0 <= x291 <= 1
 0 <= x292 <= 1
 0 <= x293 <= 1
 0 <= x294 <= 1
 0 <= x295 <= 1
 0 <= x296 <= 1
 0 <= x297 <= 1
 0 <= x298 <= 1
 0 <= x299 <= 1
 0 <= x300 <= 1
 0 <= x301 <= 1
 0 <= x302 <= 1
 0 <= x303 <= 1
 0 <= x304 <= 1
 0 <= x305 <= 1
 0 <= x306 <= 1
 0 <= x307 <= 1
 0 <= x308 <= 1
 0 <= x309 <= 1
 0 <= x310 <= 1
 0 <= x311 <= 1
 0 <= x312 <= 1
 0 <= x313 <= 1
 0 <= x314 <= 1
 0 <= x315 <= 1
 0 <= x316 <= 1
 0 <= x317 <= 1
 0 <= x318 <= 1
 0 <= x319 <= 1
 0 <= x320 <= 1
 0 <= x321 <= 1
 0 <= x322 <= 1
 0 <= x323 <= 1
 0 <= x324 <= 1
 0 <= x325 <= 1
 0 <= x326 <= 1
 0 <= x327 <= 1
 0 <= x328 <= 1
 0 <= x329 <= 1
 0 <= x330 <= 1
 0 <= x331 <= 1
 0 <= x332 <= 1
 0 <= x333 <= 1
 0 <= x334 <= 1
 0 <= x335 <= 1
 0 <= x336 <= 1
 0 <= x337 <= 1
 0 <= x338 <= 1
 0 <= x339 <= 1
 0 <= x340 <= 1
 0 <= x341 <= 1
 0 <= x342 <= 1
 0 <= x343 <= 1
 0 <= x344 <= 1
 0 <= x345 <= 1
 0 <= x346 <= 1
 0 <= x347 <= 1
 0 <= x348 <= 1
 0 <= x349 <= 1
 0 <= x350 <= 1
 0 <= x351 <= 1
 0 <= x352 <= 1
 0 <= x353 <= 1
 0 <= x354 <= 1
 0 <= x355 <= 1
 0 <= x356 <= 1
 0 <= x357 <= 1
 0 <= x358 <= 1
 0 <= x359 <= 1
 0 <= x360 <= 1
 0 <= x361 <= 1
 0 <= x362 <= 1
 0 <= x363 <= 1
 0 <= x364 <= 1
 0 <= x365 <= 1
 0 <= x366 <= 1
 0 <= x367 <= 1
 0 <= x368 <= 1
 0 <= x369 <= 1
 0 <= x370 <= 1
 0 <= x371 <= 1
 0 <= x372 <= 1
 0 <= x373 <= 1
 0 <= x374 <= 1
 0 <= x375 <= 1
 0 <= x376 <= 1
 0 <= x377 <= 1
 0 <= x378 <= 1
 0 <= x379 <= 1
 0 <= x380 <= 1
 0 <= x381 <= 1
 0 <= x382 <= 1
 0 <= x383 <= 1
 0 <= x384 <= 1
 0 <= x385 <= 1
 0 <= x386 <= 1
 0 <= x387 <= 1
 0 <= x388 <= 1
 0 <= x389 <= 1
 0 <= x390 <= 1
 0 <= x391 <= 1
 0 <= x392 <= 1
 0 <= x393 <= 1
 0 <= x394 <= 1
 0 <= x395 <= 1
 0 <= x396 <= 1
 0 <= x397 <= 1
 0 <= x398 <= 1
 0 <= x399 <= 1
 0 <= x400 <= 1
 0 <= x401 <= 1
 0 <= x402 <= 1
 0 <= x403 <= 1
 0 <= x404 <= 1
 0 <= x405 <= 1
 0 <= x406 <= 1
 0 <= x407 <= 1
 0 <= x408 <= 1
 0 <= x409 <= 1
 0 <= x410 <= 1
 0 <= x411 <= 1
 0 <= x412 <= 1
 0 <= x413 <= 1
 0 <= x414 <= 1
 0 <= x415 <= 1
 0 <= x416 <= 1
 0 <= x417 <= 1
 0 <= x418 <= 1
 0 <= x419 <= 1
 0 <= x420 <= 1
 0 <= x421 <= 1
 0 <= x422 <= 1
 0 <= x423 <= 1
 0 <= x424 <= 1
 0 <= x425 <= 1
 0 <= x426 <= 1
 0 <= x427 <= 1
 0 <= x428 <= 1
 0 <= x429 <= 1
 0 <= x430 <= 1
 0 <= x431 <= 1
 0 <= x432 <= 1
 0 <= x433 <= 1
 0 <= x434 <= 1
 0 <= x435 <= 1
 0 <= x436 <= 1
 0 <= x437 <= 1
 0 <= x438 <= 1
 0 <= x439 <= 1
 0 <= x440 <= 1
 0 <= x441 <= 1
 0 <= x442 <= 1
 0 <= x443 <= 1
 0 <= x444 <= 1
 0 <= x445 <= 1
 0 <= x446 <= 1
 0 <= x447 <= 1
 0 <= x448 <= 1
 0 <= x449 <= 1
 0 <= x450 <= 1
 0 <= x451 <= 1
 0 <= x452 <= 1
 0 <= x453 <= 1
 0 <= x454 <= 1
 0 <= x455 <= 1
 0 <= x456 <= 1
 0 <= x457 <= 1
 0 <= x458 <= 1
 0 <= x459 <= 1
 0 <= x460 <= 1
 0 <= x461 <= 1
 0 <= x462 <= 1
 0 <= x463 <= 1
 0 <= x464 <= 1
 0 <= x465 <= 1
 0 <= x466 <= 1
 0 <= x467 <= 1
 0 <= x468 <= 1
 0 <= x469 <= 1
 0 <= x470 <= 1
 0 <= x471 <= 1
 0 <= x472 <= 1
 0 <= x473 <= 1
 0 <= x474 <= 1
 0 <= x475 <= 1
 0 <= x476 <= 1
 0 <= x477 <= 1
 0 <= x478 <= 1
 0 <= x479 <= 1
 0 <= x480 <= 1
 0 <= x481 <= 1
 0 <= x482 <= 1
 0 <= x483 <= 1
 0 <= x484 <= 1
 0 <= x485 <= 1
 0 <= x486 <= 1
 0 <= x487 <= 1
 0 <= x488 <= 1
 0 <= x489 <= 1
 0 <= x490 <= 1
 0 <= x491 <= 1
 0 <= x492 <= 1
 0 <= x493 <= 1
 0 <= x494 <= 1
 0 <= x495 <= 1
 0 <= x496 <= 1
 0 <= x497 <= 1
 0 <= x498 <= 1
 0 <= x499 <= 1
 0 <= x500 <= 1
      x501 = 0
End
